(set-info :smt-lib-version 2.6)
(set-logic QF_S)
(set-info :source |
Generated by: Murphy Berzish, Mitja Kulczynski, Federico Mora, Florin Manea, Joel Day, Dirk Nowotka, Vijay Ganesh, Zhengyang Lu
Generated on: 2020-10-01
Description: Translated from a collection of real-world regex queries, AutomataArk, collected by Loris D’Antoni and Fang Wang: https://github.com/lorisdanto/automatark
Application: Evaluate solvers on real-world regex queries
Target solver: Z3str3RE, CVC4, OSTRICH, Z3seq, Z3str3, Z3-Trau
Publications: Berzish, M., Kulczynski, M., Mora, F., Manea, F., Day, J. D., Nowotka, D., & Ganesh, V. (2021, July). An SMT solver for regular expressions and linear arithmetic over string length. In CAV 2021.
|)
(set-info :license "https://creativecommons.org/licenses/by/4.0/")
(set-info :category "industrial")
(set-info :status unsat)

(declare-const X String)
(assert (str.in_re X (re.++ (str.to_re "AdTools") (re.union (str.to_re " ") (str.to_re "\u{9}") (str.to_re "\u{a}") (str.to_re "\u{c}") (str.to_re "\u{d}")) (str.to_re "downloadfile.org") (re.+ (re.union (re.range "0" "9") (re.range "A" "Z") (re.range "a" "z") (str.to_re "_"))) (str.to_re "com>") (re.* (re.union (str.to_re "\u{a}") (str.to_re "\u{d}"))) (str.to_re "as.starware.comOS/SSKCstech.web-nexus.net\u{a}"))))
(assert (str.in_re X (re.++ (str.to_re "/filename=") (re.* (re.comp (str.to_re "\u{a}"))) (str.to_re ".qcp/i\u{a}"))))
(assert (not (str.in_re X (re.++ (str.to_re "/\u{f6}\u{ec}\u{d9}\u{b3}g\u{cf}\u{9e}={") ((_ re.loop 500 500) (str.to_re "\u{f6}\u{ec}\u{d9}\u{b3}g\u{cf}\u{9e}={")) (str.to_re "/m\u{a}")))))
(assert (str.in_re X (str.to_re "HXLogOnlyDaemonactivityIterenetFrom:Class\u{a}")))
(check-sat)

(exit)
